c Sudoku solution
p cnf 729 0
125 0
196 0
236 0
247 0
254 0
273 0
281 0
312 0
358 0
384 0
421 0
443 0
482 0
494 0
548 0
587 0
664 0
671 0
732 0
746 0
366 0
826 0
869 0
888 0
189 0
349 0
265 0
292 0
178 0
331 0
323 0
467 0
698 0
891 0
915 0
711 0
968 0
763 0
785 0
757 0
799 0
774 0
728 0
229 0
218 0
438 0
939 0
153 0
561 0
951 0
141 0
162 0
855 0
645 0
475 0
593 0
686 0
579 0
535 0
377 0
395 0
976 0
872 0
983 0
997 0
844 0
942 0
924 0
522 0
627 0
514 0
416 0
633 0
619 0
459 0
556 0
652 0
813 0
837 0
117 0
134 0
